/*********************************************
 * OPL 12.6.0.0 Data
 * Author: Adrian Rodriguez Bazaga, Pau Rodriguez Esmerats
 * Creation Date: 06/12/2017 at 23:03:06
 *********************************************/

nNurses=245;
maxConsec=2;
maxPresence=7;
maxHours=5;
minHours=1;
hours=24;
demand= [41 48 62 60 48 62 60 49 45 25 2 6 3 9 4 8 3 3 2 3 37 69 33 54  ];
